p cnf    162        390
c 1 bool_WARN_NONE
c 2 bool_WARN_ANY
c 3 bool_WARN_WARNING
c 4 bool_OPTIMIZE_FOR_SIZE
c 5 bool_IA32
c 6 bool_AMD64
c 7 bool_PERFORMANCE
c 8 string_ABI_eq_vf
c 9 bool_BIG_ENDIAN
c 10 bool_HAS_JDB_GZIP_OPTION
c 11 bool_UNIT_TEST
c 12 bool_STACK_DEPTH
c 13 bool_HAS_VIRT_OBJ_SPACE_OPTION
c 14 bool_GSTABS
c 15 bool_KERNEL_NX
c 16 bool_MAINTAINER_MODE
c 17 bool_INLINE
c 18 bool_HAS_JDB_DISASM_OPTION
c 19 master_int_WARN_LEVEL
c 20 bit_0_int_WARN_LEVEL
c 21 bit_1_int_WARN_LEVEL
c 22 bool_HAS_FPU_OPTION
c 23 bool_PF_PC
c 24 bool_PF_UX
c 25 string_CC_eq_empty
c 26 string_CC_eq_CC_otherval
c 27 string_CC_eq_gcc
c 28 string_LABEL_eq_empty
c 29 string_LABEL_eq_LABEL_otherval
c 30 bool_HAS_SERIAL_OPTION
c 31 bool_BIT64
c 32 bool_EXPERIMENTAL
c 33 bool_CONTEXT_8K
c 34 bool_HAS_CPU_VIRT
c 35 bool_POWERSAVE_GETCHAR
c 36 string_CXX_eq_empty
c 37 string_CXX_eq_CXX_otherval
c 38 string_CXX_eq_g++
c 39 bool_HAS_LAZY_FPU
c 40 bool_FINE_GRAINED_CPUTIME
c 41 bool_HAS_MP_OPTION
c 42 bool_ABI_VF
c 43 bool_BIT32
c 44 string_HOST_CC_eq_empty
c 45 string_HOST_CC_eq_HOST_CC_otherval
c 46 string_HOST_CC_eq_gcc
c 47 bool_UX_CON
c 48 bool_UX_NET
c 49 string_HOST_CXX_eq_empty
c 50 string_HOST_CXX_eq_HOST_CXX_otherval
c 51 string_HOST_CXX_eq_g++
c 52 bool_HAS_WATCHDOG_OPTION
c 53 bool_CPU_VIRT
c 54 bool_KERNEL_ISOLATION
c 55 bool_DISABLE_VIRT_OBJ_SPACE
c 56 bool_HAS_IOMMU_OPTION
c 57 bool_REGPARM3
c 58 bool_JDB
c 59 bool_FPU
c 60 bool_VIRT_OBJ_SPACE
c 61 bool_INTEL_IA32_BRANCH_BARRIERS
c 62 bool_MP
c 63 bool_IRQ_SPINNER
c 64 bool_JDB_LOGGING
c 65 bool_TEST_SUPPORT_CODE
c 66 bool_NDEBUG
c 67 bool_JDB_DISASM
c 68 bool_WATCHDOG
c 69 bool_JDB_MISC
c 70 bool_PERF_CNT
c 71 bool_SCHED_FIXED_PRIO
c 72 bool_SCHED_FP_WFQ
c 73 bool_SCHED_WFQ
c 74 bool_NO_LDT
c 75 bool_WORKAROUND_AMD_FPU_LEAK
c 76 bool_JDB_GZIP
c 77 bool_CONTEXT_4K
c 78 bool_BEFORE_IRET_SANITY
c 79 bool_SERIAL
c 80 string_XARCH_eq_ia32
c 81 string_XARCH_eq_amd64
c 82 string_XARCH_eq_ux
c 83 bool_IA32_PCID
c 84 master_int_MP_MAX_CPUS
c 85 sign_int_MP_MAX_CPUS
c 86 bit_0_int_MP_MAX_CPUS
c 87 bit_1_int_MP_MAX_CPUS
c 88 bit_2_int_MP_MAX_CPUS
c 89 bit_3_int_MP_MAX_CPUS
c 90 bit_4_int_MP_MAX_CPUS
c 91 bit_5_int_MP_MAX_CPUS
c 92 bit_6_int_MP_MAX_CPUS
c 93 bit_7_int_MP_MAX_CPUS
c 94 bit_8_int_MP_MAX_CPUS
c 95 bit_9_int_MP_MAX_CPUS
c 96 bit_10_int_MP_MAX_CPUS
c 97 bit_11_int_MP_MAX_CPUS
c 98 bit_12_int_MP_MAX_CPUS
c 99 bit_13_int_MP_MAX_CPUS
c 100 bit_14_int_MP_MAX_CPUS
c 101 bit_15_int_MP_MAX_CPUS
c 102 bit_16_int_MP_MAX_CPUS
c 103 bit_17_int_MP_MAX_CPUS
c 104 bit_18_int_MP_MAX_CPUS
c 105 bit_19_int_MP_MAX_CPUS
c 106 bit_20_int_MP_MAX_CPUS
c 107 bit_21_int_MP_MAX_CPUS
c 108 bit_22_int_MP_MAX_CPUS
c 109 bit_23_int_MP_MAX_CPUS
c 110 bit_24_int_MP_MAX_CPUS
c 111 bit_25_int_MP_MAX_CPUS
c 112 bit_26_int_MP_MAX_CPUS
c 113 bit_27_int_MP_MAX_CPUS
c 114 bit_28_int_MP_MAX_CPUS
c 115 bit_29_int_MP_MAX_CPUS
c 116 bit_30_int_MP_MAX_CPUS
c 117 bit_31_int_MP_MAX_CPUS
c 118 bit_32_int_MP_MAX_CPUS
c 119 bit_33_int_MP_MAX_CPUS
c 120 bit_34_int_MP_MAX_CPUS
c 121 bit_35_int_MP_MAX_CPUS
c 122 bit_36_int_MP_MAX_CPUS
c 123 bit_37_int_MP_MAX_CPUS
c 124 bit_38_int_MP_MAX_CPUS
c 125 bit_39_int_MP_MAX_CPUS
c 126 bit_40_int_MP_MAX_CPUS
c 127 bit_41_int_MP_MAX_CPUS
c 128 bit_42_int_MP_MAX_CPUS
c 129 bit_43_int_MP_MAX_CPUS
c 130 bit_44_int_MP_MAX_CPUS
c 131 bit_45_int_MP_MAX_CPUS
c 132 bit_46_int_MP_MAX_CPUS
c 133 bit_47_int_MP_MAX_CPUS
c 134 bit_48_int_MP_MAX_CPUS
c 135 bit_49_int_MP_MAX_CPUS
c 136 bit_50_int_MP_MAX_CPUS
c 137 bit_51_int_MP_MAX_CPUS
c 138 bit_52_int_MP_MAX_CPUS
c 139 bit_53_int_MP_MAX_CPUS
c 140 bit_54_int_MP_MAX_CPUS
c 141 bit_55_int_MP_MAX_CPUS
c 142 bit_56_int_MP_MAX_CPUS
c 143 bit_57_int_MP_MAX_CPUS
c 144 bit_58_int_MP_MAX_CPUS
c 145 bit_59_int_MP_MAX_CPUS
c 146 bit_60_int_MP_MAX_CPUS
c 147 bit_61_int_MP_MAX_CPUS
c 148 bit_62_int_MP_MAX_CPUS
c 149 bool_NO_IO_PAGEFAULT
c 150 bool_INTEL_MDS_MITIGATION
c 151 bool_NO_FRAME_PTR
c 152 bool_JDB_ACCOUNTING
c 153 bool_LAZY_FPU
c 154 bool_SYNC_TSC
c 155 bool_CPU_LOCAL_MAP
c 156 bool_IOMMU
c 157 bool_SCHED_PIT
c 158 bool_SCHED_HPET
c 159 bool_SCHED_APIC
c 160 bool_SCHED_RTC
c 161 bool_SLOW_RTC
c 162 bool_ONE_SHOT
1 3 2 0
-1 -3 0
-1 -2 0
-3 -2 0
5 6 0
-5 -6 0
8 0
-9 0
10 0
-7 -12 0
13 0
-14 0
6 -15 0
17 -7 0
18 0
19 -3 -2 0
-3 -2 -20 0
21 -3 -2 0
2 19 -3 0
2 20 -3 0
2 -3 -21 0
19 -2 0
-2 -20 0
21 -2 0
19 -1 -2 0
-1 -2 -20 0
21 -1 -2 0
2 19 -1 -3 0
2 20 -1 -3 0
2 -1 -3 -21 0
2 3 19 -1 0
2 3 -1 -20 0
2 3 -1 -21 0
3 2 1 -19 0
3 2 1 -20 0
3 2 1 -21 0
22 0
23 24 -5 0
23 24 -6 0
23 24 -5 0
6 5 -23 0
6 5 -24 0
5 6 -23 0
5 -24 0
-23 -24 0
-27 -26 0
-27 -25 0
-25 -26 0
25 27 26 0
-28 -29 0
28 29 0
30 -23 0
23 -30 0
31 -6 0
6 -31 0
33 -31 0
31 -33 0
34 -23 0
23 -34 0
23 -35 0
-38 -37 0
-38 -36 0
-36 -37 0
36 38 37 0
39 0
-7 -40 0
41 -23 0
23 -41 0
42 0
43 -5 0
5 -43 0
-46 -45 0
-46 -44 0
-44 -45 0
44 46 45 0
24 -47 0
24 -48 0
-51 -50 0
-51 -49 0
-49 -50 0
49 51 50 0
52 -23 0
23 -52 0
34 -53 0
6 -54 0
32 -55 0
13 -55 0
56 -23 0
23 -56 0
57 -5 -23 0
5 -57 0
23 -57 0
58 -24 0
59 0
55 54 60 -13 0
13 -60 0
-55 -60 0
-54 -60 0
6 -61 0
54 -61 0
41 -62 0
23 -63 0
58 -64 0
65 -11 0
66 -7 0
58 -67 0
58 18 -67 0
18 58 -67 0
18 -67 0
52 -68 0
58 -69 0
24 23 -69 0
70 -58 -5 0
70 -58 -6 0
58 -70 0
5 6 -70 0
71 73 72 0
32 -73 0
32 -72 0
-71 -73 0
-71 -72 0
-73 -72 0
74 -54 0
54 6 5 -74 0
23 -75 0
58 -76 0
58 10 -76 0
10 58 -76 0
10 -76 0
33 77 0
-33 -77 0
23 -78 0
-78 -7 0
30 -79 0
-82 -81 0
-82 -80 0
-80 -81 0
82 -24 0
82 -6 -23 -24 0
24 81 -6 -23 0
82 -5 -23 -24 0
24 81 -6 -5 -23 0
24 6 80 -5 -23 0
6 24 5 -80 0
6 24 5 -81 0
6 24 5 -82 0
6 24 23 -80 0
6 24 23 -81 0
6 24 23 -82 0
24 23 5 -80 0
24 23 5 -81 0
24 23 5 -82 0
24 23 -80 0
24 23 -81 0
24 23 -82 0
6 -83 0
54 -83 0
84 -62 0
62 -84 0
62 -85 0
62 -86 0
62 -87 0
62 -88 0
62 -89 0
62 -90 0
62 -91 0
62 -92 0
62 -93 0
62 -94 0
62 -95 0
62 -96 0
62 -97 0
62 -98 0
62 -99 0
62 -100 0
62 -101 0
62 -102 0
62 -103 0
62 -104 0
62 -105 0
62 -106 0
62 -107 0
62 -108 0
62 -109 0
62 -110 0
62 -111 0
62 -112 0
62 -113 0
62 -114 0
62 -115 0
62 -116 0
62 -117 0
62 -118 0
62 -119 0
62 -120 0
62 -121 0
62 -122 0
62 -123 0
62 -124 0
62 -125 0
62 -126 0
62 -127 0
62 -128 0
62 -129 0
62 -130 0
62 -131 0
62 -132 0
62 -133 0
62 -134 0
62 -135 0
62 -136 0
62 -137 0
62 -138 0
62 -139 0
62 -140 0
62 -141 0
62 -142 0
62 -143 0
62 -144 0
62 -145 0
62 -146 0
62 -147 0
62 -148 0
-84 -62 -85 0
148 146 145 109 107 118 105 114 144 103 102 108 147 99 93 86 111 92 87 89 113 88 123 104 91 112 94 115 96 106 97 130 141 98 119 101 120 90 121 127 131 140 142 117 124 125 137 95 116 122 126 128 136 129 132 110 133 135 134 100 138 143 139 -84 -62 0
85 -84 -62 -148 0
85 -84 -62 -147 0
85 -84 -62 -146 0
85 -84 -62 -145 0
85 -84 -62 -144 0
85 -84 -62 -143 0
85 -84 -62 -142 0
85 -84 -62 -141 0
85 -84 -62 -140 0
85 -84 -62 -139 0
85 -84 -62 -138 0
85 -84 -62 -137 0
85 -84 -62 -136 0
85 -84 -62 -135 0
85 -84 -62 -134 0
85 -84 -62 -133 0
85 -84 -62 -132 0
85 -84 -62 -131 0
85 -84 -62 -130 0
85 -84 -62 -129 0
85 -84 -62 -128 0
85 -84 -62 -127 0
85 -84 -62 -126 0
85 -84 -62 -125 0
85 -84 -62 -124 0
85 -84 -62 -123 0
85 -84 -62 -122 0
85 -84 -62 -121 0
85 -84 -62 -120 0
85 -84 -62 -119 0
85 -84 -62 -118 0
85 -84 -62 -117 0
85 -84 -62 -116 0
85 -84 -62 -115 0
85 -84 -62 -114 0
85 -84 -62 -113 0
85 -84 -62 -112 0
85 -84 -62 -111 0
85 -84 -62 -110 0
85 -84 -62 -109 0
85 -84 -62 -108 0
85 -84 -62 -107 0
85 -62 -84 -106 0
85 -84 -62 -105 0
85 -84 -62 -104 0
85 -84 -62 -103 0
85 -84 -62 -102 0
85 -84 -62 -101 0
85 -84 -62 -100 0
85 -84 -62 -99 0
85 -84 -62 -98 0
85 -84 -62 -97 0
85 -84 -62 -96 0
85 -84 -62 -95 0
85 -84 -62 -94 0
85 -84 -62 -93 -92 0
85 -84 -62 -93 -91 0
85 -84 -62 -93 -90 0
85 -84 -62 -93 -89 0
85 -84 -62 -93 -88 0
85 -84 -62 -93 -87 0
85 -84 -62 -93 -86 0
86 87 88 89 127 142 128 135 134 145 125 137 148 132 140 131 109 138 100 129 136 123 120 101 99 147 130 141 143 139 146 103 119 124 117 118 107 97 106 122 126 95 116 115 94 144 114 113 112 133 110 93 108 102 105 98 96 111 92 104 91 121 90 -85 0
149 -54 0
54 6 5 -149 0
6 -150 0
54 -150 0
151 -7 0
58 -152 0
153 -7 0
7 39 59 -153 0
7 39 -153 0
7 39 -6 -153 0
7 59 -153 0
7 59 39 -153 0
7 59 -6 -153 0
7 6 153 -24 -59 -39 0
7 59 -24 -153 0
7 39 -24 -153 0
7 -24 -6 -153 0
23 -154 0
5 6 -154 0
155 -54 0
54 6 -155 0
54 32 -155 0
56 -156 0
62 157 160 159 158 -23 0
62 157 160 159 158 -23 -24 0
62 157 160 159 158 -24 -23 0
62 157 160 159 158 -24 0
62 157 160 159 158 -23 0
62 157 160 159 158 -23 -24 0
157 160 159 158 -23 0
157 160 159 158 -23 -24 0
62 157 160 159 158 -32 -23 0
62 157 160 159 158 -32 -23 -24 0
24 23 -157 0
24 23 -160 0
24 23 -159 0
24 23 -158 0
24 23 -62 -157 0
24 23 -62 -160 0
24 23 -62 -159 0
24 23 -62 -158 0
24 23 32 -157 0
24 23 32 -160 0
24 23 32 -159 0
24 23 32 -158 0
24 23 -62 -157 0
24 23 -62 -160 0
24 23 -62 -159 0
24 23 -62 -158 0
24 23 -62 -157 0
24 23 -62 -160 0
24 23 -62 -159 0
24 23 -62 -158 0
24 23 32 -62 -157 0
24 23 32 -62 -160 0
24 23 32 -62 -159 0
24 23 32 -62 -158 0
23 -62 -157 0
23 -62 -160 0
23 -62 -159 0
23 -62 -158 0
23 -62 -157 0
23 -62 -160 0
23 -62 -159 0
23 -62 -158 0
23 32 -62 -157 0
23 32 -62 -160 0
23 32 -62 -159 0
23 32 -62 -158 0
23 -62 -157 0
23 -62 -160 0
23 -62 -159 0
23 -62 -158 0
23 -62 -157 0
23 -62 -160 0
23 -62 -159 0
23 -62 -158 0
23 32 -62 -157 0
23 32 -62 -160 0
23 32 -62 -159 0
23 32 -62 -158 0
23 24 -157 0
23 24 -160 0
23 24 -159 0
23 24 -158 0
23 24 -157 0
-157 -62 0
23 -160 0
-160 -62 0
23 -159 0
23 -158 0
-158 -62 0
32 -158 0
-157 -160 0
-157 -159 0
-157 -158 0
-160 -159 0
-160 -158 0
-159 -158 0
160 -161 0
159 -162 0
154 -162 0
